50
6826

374 515
559 465
461 366
788 886
32 581
537 709
64 359
606 628
379 573
628 222
653 455
546 705
567 633
248 770
35 267
328 32
525 484
691 384
860 18
676 126
536 143
859 407
704 692
483 270
124 664
685 555
822 562
46 483
941 981
770 167
929 648
356 455
152 595
205 697
902 937
149 449
964 72
98 633
985 660
246 692
267 1000
363 338
681 677
70 482
306 643
163 116
740 727
426 665
895 904
606 871
